decision_x1=[0,99];
decision_x2=[0,99];
decision_x3=[0,99];
decision_x4=[0,99];
decision_x5=[0,99];
decision_x6=[0,99];
decision_x7=[0,99];
decision_x8=[0,99];
decision_x9=[0,99];
decision_x10=[0,99];
random_y1=[0,99];
random_y2=[0,99];
random_y3=[0,99];
random_y4=[0,99];
random_y5=[0,99];
random_y6=[0,99];
random_y7=[0,99];
random_y8=[0,99];
random_y9=[0,99];
random_y10=[0,99];
function(x3,x2)=-3.99617x3^2 -6.33061x3 9.36109x2^2 1.18475x2 3.31191x3x2 4.84133;
function(x6,x5)=6.97496x6^2 -7.64412x6 -9.13226x5^2 -4.36463x5 -1.0373x6x5 9.72118;
function(x7,x4)=2.01578x7^2 9.49309x7 6.72699x4^2 3.78069x4 6.17866x7x4 -6.72077;
function(x7,x6)=-5.69961x7^2 4.41174x7 -6.37745x6^2 4.78928x6 3.71706x7x6 8.77812;
function(x8,x3)=-3.7085x8^2 -6.41569x8 5.07905x3^2 -1.89049x3 -3.57999x8x3 2.37727;
function(x9,x1)=2.82387x9^2 -3.37162x9 5.50437x1^2 -1.75318x1 -5.01504x9x1 -8.41802;
function(x9,x6)=-6.94013x9^2 -9.91222x9 -4.58869x6^2 8.60121x6 -1.33743x9x6 -9.47132;
function(x10,x3)=6.04947x10^2 9.68455x10 4.57689x3^2 8.2224x3 -3.67575x10x3 -5.76838;
function(x10,x4)=-3.90247x10^2 5.31125x10 3.82268x4^2 5.19506x4 -9.64231x10x4 -5.93463;
function(x1,y1)=4.07804x1^2 -5.89286x1 3.07708y1^2 -3.44365y1 1.31345x1y1 -9.92624;
function(x2,y2)=-1.19178x2^2 -6.56808x2 2.5074y2^2 -7.21705y2 -6.56856x2y2 -8.53459;
function(x3,y3)=4.52661x3^2 -1.23039x3 6.50595y3^2 -3.45212y3 -3.88296x3y3 -8.58232;
function(x4,y4)=-8.27099x4^2 -8.48476x4 8.63914y4^2 -4.36433y4 -9.16887x4y4 7.2231;
function(x5,y5)=4.62399x5^2 1.42761x5 2.29259y5^2 4.23061y5 -4.19952x5y5 -8.39568;
function(x6,y6)=-8.19129x6^2 -6.11773x6 7.86965y6^2 -6.17355y6 -2.74769x6y6 -2.61509;
function(x7,y7)=-8.88138x7^2 4.11201x7 -2.84106y7^2 6.67109y7 -6.1041x7y7 4.38432;
function(x8,y8)=-3.31432x8^2 -4.59295x8 -9.46865y8^2 -3.58813y8 -2.6929x8y8 9.04145;
function(x9,y9)=-3.56011x9^2 6.30022x9 9.06581y9^2 -6.78871y9 -1.29307x9y9 9.30701;
function(x10,y10)=7.8638x10^2 -8.97047x10 2.73432y10^2 6.26979y10 -5.70897x10y10 1.25131;
neighbor_set_x1=x9 ;
neighbor_set_x10=x3 x4 ;
neighbor_set_x2=x3 ;
neighbor_set_x3=x10 x2 x8 ;
neighbor_set_x4=x10 x7 ;
neighbor_set_x5=x6 ;
neighbor_set_x6=x5 x7 x9 ;
neighbor_set_x7=x4 x6 ;
neighbor_set_x8=x3 ;
neighbor_set_x9=x1 x6 ;
initial_distribution_y1=[alpha:4.58651,beta:4.19373];
initial_distribution_y2=[alpha:8.2409,beta:4.72072];
initial_distribution_y3=[alpha:5.2806,beta:7.05069];
initial_distribution_y4=[alpha:5.74855,beta:4.01153];
initial_distribution_y5=[alpha:9.65291,beta:5.78804];
initial_distribution_y6=[alpha:4.23564,beta:7.76616];
initial_distribution_y7=[alpha:8.27906,beta:5.22305];
initial_distribution_y8=[alpha:7.45629,beta:7.12371];
initial_distribution_y9=[alpha:8.56519,beta:4.70605];
initial_distribution_y10=[alpha:7.70161,beta:9.52434];
transition_y1=[alpha:7.11832];
transition_y2=[alpha:8.12216];
transition_y3=[alpha:9.91626];
transition_y4=[alpha:8.05154];
transition_y5=[alpha:6.32511];
transition_y6=[alpha:6.17462];
transition_y7=[alpha:9.63773];
transition_y8=[alpha:7.36263];
transition_y9=[alpha:4.28446];
transition_y10=[alpha:9.88549];
